8
2147483647 31 81 20 29 100 68 16 
31 2147483647 2 95 14 26 64 47 
81 2 2147483647 26 95 14 58 96 
20 95 26 2147483647 19 19 71 92 
29 14 95 19 2147483647 33 80 45 
100 26 14 19 33 2147483647 61 28 
68 64 58 71 80 61 2147483647 86 
16 47 96 92 45 28 86 2147483647 
